c uprop, v00.0, 
c reading from data/prog966.c.cnf
c done reading: 0.002732
p cnf 139 517
-52 -76 0
-52 -71 0
52 71 76 0
-46 71 76 0
-46 -71 -76 0
46 71 -76 0
46 -71 76 0
52 -65 0
-64 -65 0
-52 64 65 0
-52 -58 64 0
52 -58 -64 0
52 58 64 0
-52 58 -64 0
-53 65 0
-51 -53 0
51 53 -65 0
-48 51 -65 0
-48 -51 65 0
48 51 65 0
48 -51 -65 0
-47 53 0
-45 -47 0
45 47 -53 0
45 -53 -72 0
-45 53 -72 0
45 53 72 0
-45 -53 72 0
47 -77 0
-68 -77 0
-47 68 77 0
-47 68 -79 0
47 -68 -79 0
47 68 79 0
-47 -68 79 0
77 -80 0
-61 -80 0
61 -77 80 0
61 -77 -82 0
-61 77 -82 0
61 77 82 0
-61 -77 82 0
80 -83 0
-56 -83 0
56 -80 83 0
56 -80 -84 0
-56 80 -84 0
56 80 84 0
-56 -80 84 0
71 -85 0
76 -85 0
-71 -76 85 0
-71 -76 -86 0
71 76 -86 0
-71 76 86 0
71 -76 86 0
-64 -71 87 0
-64 -85 87 0
-71 -85 87 0
64 71 -87 0
64 85 -87 0
71 85 -87 0
64 -87 -88 0
71 -87 -88 0
85 -87 -88 0
-64 87 88 0
-71 87 88 0
-85 87 88 0
-64 -71 -85 88 0
64 71 85 -88 0
-51 -64 89 0
-51 -87 89 0
-64 -87 89 0
51 64 -89 0
51 87 -89 0
64 87 -89 0
51 -89 -90 0
64 -89 -90 0
87 -89 -90 0
-51 89 90 0
-64 89 90 0
-87 89 90 0
-51 -64 -87 90 0
51 64 87 -90 0
-45 -51 91 0
-45 -89 91 0
-51 -89 91 0
45 51 -91 0
45 89 -91 0
51 89 -91 0
-42 45 -91 0
-42 51 -91 0
-42 89 -91 0
42 -45 91 0
42 -51 91 0
42 -89 91 0
42 -45 -51 -89 0
-42 45 51 89 0
41 -45 -68 0
41 -68 -91 0
41 -45 -91 0
-41 45 68 0
-41 68 91 0
-41 45 91 0
-39 -41 68 0
-39 -41 45 0
-39 -41 91 0
39 41 -68 0
39 41 -45 0
39 41 -91 0
39 -45 -68 -91 0
-39 45 68 91 0
37 -61 -68 0
37 -41 -61 0
37 -41 -68 0
-37 61 68 0
-37 41 61 0
-37 41 68 0
-35 -37 61 0
-35 -37 68 0
-35 -37 41 0
35 37 -61 0
35 37 -68 0
35 37 -41 0
35 -41 -61 -68 0
-35 41 61 68 0
33 -56 -61 0
33 -37 -56 0
33 -37 -61 0
-33 56 61 0
-33 37 56 0
-33 37 61 0
-33 56 -74 0
-33 61 -74 0
-33 37 -74 0
33 -56 74 0
33 -61 74 0
33 -37 74 0
-37 -56 -61 74 0
37 56 61 -74 0
56 -69 0
33 -69 0
-33 -56 69 0
-33 -56 -62 0
33 56 -62 0
33 -56 62 0
-33 56 62 0
39 -49 0
-49 76 0
-39 49 -76 0
-39 -43 -76 0
39 -43 76 0
-39 43 76 0
39 43 -76 0
-35 66 -71 0
-35 -49 66 0
-49 66 -71 0
35 -66 71 0
35 49 -66 0
49 -66 71 0
35 -59 -66 0
-59 -66 71 0
49 -59 -66 0
-35 59 66 0
59 66 -71 0
-49 59 66 0
-35 -49 59 -71 0
35 49 -59 71 0
54 -64 -74 0
54 -66 -74 0
54 -64 -66 0
-54 64 74 0
-54 66 74 0
-54 64 66 0
54 -74 0
54 -64 0
54 -66 0
-64 -66 -74 0
31 -51 -62 0
31 -54 -62 0
31 -51 -54 0
-31 51 62 0
-31 54 62 0
-31 51 54 0
31 -62 0
31 -51 0
31 -54 0
-51 -54 -62 0
29 -45 -69 0
29 -31 -69 0
29 -31 -45 0
-29 45 69 0
-29 31 69 0
-29 31 45 0
29 -69 0
29 -45 0
29 -31 0
-31 -45 -69 0
-27 68 0
-27 29 0
27 -29 -68 0
29 -68 0
-29 68 0
-25 61 0
-25 27 0
25 -27 -61 0
27 -61 0
-27 61 0
-25 -56 0
25 -56 0
-25 56 0
-24 -76 0
-24 -86 0
24 76 86 0
-23 76 86 0
-23 -76 -86 0
23 -76 86 0
23 76 -86 0
-22 24 0
-22 -88 0
22 -24 88 0
-21 -24 88 0
-21 24 -88 0
21 24 88 0
21 -24 -88 0
-20 22 0
-20 -90 0
20 -22 90 0
-19 -22 90 0
-19 22 -90 0
19 22 90 0
19 -22 -90 0
-18 20 0
-18 -42 0
18 -20 42 0
-17 -20 42 0
-17 20 -42 0
17 20 42 0
17 -20 -42 0
-16 18 0
-16 -43 0
16 -18 43 0
-15 -18 43 0
-15 18 -43 0
15 18 43 0
15 -18 -43 0
-14 16 0
-14 -59 0
14 -16 59 0
-13 -16 59 0
-13 16 -59 0
13 16 59 0
13 -16 -59 0
14 -92 0
-14 92 0
-14 -93 0
14 93 0
92 -94 0
-92 94 0
-92 -95 0
92 95 0
94 -96 0
-94 96 0
-94 -97 0
94 97 0
96 -98 0
-96 98 0
-96 -99 0
96 99 0
98 -100 0
-98 100 0
-98 -101 0
98 101 0
100 -102 0
-100 102 0
-100 -103 0
100 103 0
102 -104 0
-102 104 0
-102 -105 0
102 105 0
-106 -108 0
-108 -109 0
106 108 109 0
106 109 -111 0
-106 -109 -111 0
-106 109 111 0
106 -109 111 0
108 -112 0
-108 112 0
-108 -113 0
108 113 0
112 -114 0
-112 114 0
-112 -115 0
112 115 0
114 -116 0
-114 116 0
-114 -117 0
114 117 0
116 -118 0
-116 118 0
-116 -119 0
116 119 0
118 -120 0
-118 120 0
-118 -121 0
118 121 0
120 -122 0
-120 122 0
-120 -123 0
120 123 0
109 -124 0
106 -124 0
-106 -109 124 0
-106 -109 -125 0
106 109 -125 0
106 -109 125 0
-106 109 125 0
-109 -124 126 0
109 -126 0
124 -126 0
109 124 -126 0
-126 -127 0
109 -126 -127 0
124 -126 -127 0
-109 126 127 0
-124 126 127 0
109 124 -127 0
-126 128 0
126 -128 0
-57 128 0
-57 106 0
57 -106 -128 0
-106 -107 -128 0
106 -107 128 0
106 107 -128 0
-106 107 128 0
-57 -109 110 0
109 -110 0
57 -110 0
57 109 -110 0
-110 -129 0
109 -110 -129 0
57 -110 -129 0
-109 110 129 0
-57 110 129 0
57 109 -129 0
-110 130 0
110 -130 0
129 -131 0
106 -131 0
-106 -129 131 0
-106 -129 -132 0
106 129 -132 0
106 -129 132 0
-106 129 132 0
-109 -130 133 0
-130 -131 133 0
-109 -131 133 0
109 130 -133 0
130 131 -133 0
109 131 -133 0
130 -133 -134 0
109 -133 -134 0
131 -133 -134 0
-130 133 134 0
-109 133 134 0
-131 133 134 0
-109 -130 -131 134 0
109 130 131 -134 0
-133 135 0
133 -135 0
-73 134 0
-73 106 0
73 -106 -134 0
-78 -106 -134 0
-78 106 134 0
78 106 -134 0
78 -106 134 0
-109 -135 0
-73 -135 0
-73 -109 0
81 -135 0
81 -109 0
-73 81 0
-73 81 -109 -135 0
73 -81 109 135 0
-40 -106 0
-40 -125 0
40 106 125 0
-38 106 125 0
-38 -106 -125 0
38 -106 125 0
38 106 -125 0
-36 40 0
-36 -127 0
36 -40 127 0
-34 -40 127 0
-34 40 -127 0
34 40 127 0
34 -40 -127 0
36 -75 0
-75 -107 0
-36 75 107 0
-36 -70 107 0
36 -70 -107 0
36 70 107 0
-36 70 -107 0
-63 75 0
-63 -132 0
63 -75 132 0
-50 -75 132 0
-50 75 -132 0
50 75 132 0
50 -75 -132 0
-44 63 0
-44 -78 0
44 -63 78 0
-63 -67 78 0
63 -67 -78 0
63 67 78 0
-63 67 -78 0
44 -60 0
-60 -81 0
-44 60 81 0
-44 -55 81 0
44 -55 -81 0
44 55 81 0
-44 55 -81 0
60 -136 0
-60 136 0
-32 -60 0
32 60 0
136 -137 0
-136 137 0
-30 -136 0
30 136 0
137 -138 0
-137 138 0
-28 -137 0
28 137 0
138 -139 0
-138 139 0
-26 -138 0
26 138 0
-12 139 0
12 -139 0
-11 -139 0
11 139 0
-10 12 0
10 -12 0
-9 -12 0
9 12 0
-8 10 0
8 -10 0
-7 -10 0
7 10 0
-6 76 0
-6 106 0
6 -76 -106 0
-76 106 0
76 -106 0
5 -86 -125 0
5 -6 -86 0
5 -6 -125 0
-5 86 125 0
-5 6 86 0
-5 6 125 0
5 -86 0
5 -125 0
5 -6 0
-6 -86 -125 0
4 -88 -127 0
4 -5 -88 0
4 -5 -127 0
-4 88 127 0
-4 5 88 0
-4 5 127 0
4 -88 0
4 -127 0
4 -5 0
-5 -88 -127 0
3 -90 -107 0
3 -4 -90 0
3 -4 -107 0
-3 90 107 0
-3 4 90 0
-3 4 107 0
-3 90 0
-3 107 0
-3 4 0
4 90 107 0
2 -42 -132 0
2 -3 -42 0
2 -3 -132 0
-2 42 132 0
-2 3 42 0
-2 3 132 0
2 -42 0
2 -132 0
2 -3 0
-3 -42 -132 0
1 -43 -78 0
1 -2 -43 0
1 -2 -78 0
-1 43 78 0
-1 2 43 0
-1 2 78 0
-1 43 0
-1 78 0
-1 2 0
2 43 78 0
-59 -81 0
-1 -59 0
-1 -81 0
1 59 81 0
